units real # angstroms, kCal/mole, Daltons, Kelvin
atom_style full # select column format for Atoms section
pair_style lj/charmm/coul/long 9.0 10.0 10 # params needed: epsilon sigma
bond_style harmonic # parameters needed: k_bond, r0
angle_style harmonic # parameters needed: k_theta, theta0
kspace_style pppm 0.0001 # long-range electrostatics sum method
pair_modify mix arithmetic # using Lorenz-Berthelot mixing rules
