# -- Non-bonded (Pair) interactions --
# atomType1 atomType2 parameter-list (epsilon, sigma)
pair_coeff 1 1 0.1553 3.166
pair_coeff 2 2 0.0 2.058
# (mixing rules determine interactions between types @atom:O and @atom:H)
# -- Bonded interactions --
# bondType parameter list (k_bond, r0)
bond_coeff 1 1000.00 1.0
# angleType parameter-list (k_theta, theta0)
angle_coeff 1 1000.0 109.47
# Group definitions and constraints can also go in the "In Settings" section
group spce type 1 2
fix fSHAKE spce shake 0.0001 10 100 b 1 a 1
# (lammps quirk: Remember to "unfix fSHAKE" during minimization.)
